p tw 160 32801 2 
1 82 
1 83 
1 86 
1 87 
1 89 
1 91 
1 93 
1 95 
1 97 
1 99 
1 101 
1 104 
1 105 
1 108 
1 109 
1 111 
1 114 
1 115 
1 118 
1 119 
1 122 
1 124 
1 125 
1 127 
1 129 
1 131 
1 133 
1 135 
1 137 
1 139 
1 141 
1 143 
1 145 
1 147 
1 149 
1 151 
1 153 
1 156 
1 158 
1 159 
2 81 
2 84 
2 85 
2 88 
2 90 
2 92 
2 94 
2 96 
2 98 
2 100 
2 102 
2 103 
2 106 
2 107 
2 110 
2 112 
2 113 
2 116 
2 117 
2 120 
2 121 
2 123 
2 126 
2 128 
2 130 
2 132 
2 134 
2 136 
2 138 
2 140 
2 142 
2 144 
2 146 
2 148 
2 150 
2 152 
2 154 
2 155 
2 157 
2 160 
3 4 
3 82 
3 83 
3 86 
3 87 
3 89 
3 92 
3 94 
3 96 
3 98 
3 100 
3 101 
3 104 
3 106 
3 108 
3 109 
3 112 
3 114 
3 116 
3 118 
3 120 
3 122 
3 124 
3 126 
3 128 
3 130 
3 132 
3 133 
3 136 
3 138 
3 139 
3 142 
3 144 
3 145 
3 147 
3 150 
3 152 
3 154 
3 156 
3 158 
3 159 
4 81 
4 84 
4 85 
4 88 
4 90 
4 91 
4 93 
4 95 
4 97 
4 99 
4 102 
4 103 
4 105 
4 107 
4 110 
4 111 
4 113 
4 115 
4 117 
4 119 
4 121 
4 123 
4 125 
4 127 
4 129 
4 131 
4 134 
4 135 
4 137 
4 140 
4 141 
4 143 
4 146 
4 148 
4 149 
4 151 
4 153 
4 155 
4 157 
4 160 
5 6 
5 81 
5 84 
5 85 
5 88 
5 89 
5 91 
5 94 
5 95 
5 97 
5 100 
5 101 
5 104 
5 105 
5 108 
5 109 
5 111 
5 114 
5 116 
5 118 
5 119 
5 122 
5 123 
5 126 
5 127 
5 130 
5 132 
5 133 
5 135 
5 138 
5 140 
5 142 
5 144 
5 146 
5 148 
5 150 
5 151 
5 153 
5 155 
5 157 
5 159 
6 82 
6 83 
6 86 
6 87 
6 90 
6 92 
6 93 
6 96 
6 98 
6 99 
6 102 
6 103 
6 106 
6 107 
6 110 
6 112 
6 113 
6 115 
6 117 
6 120 
6 121 
6 124 
6 125 
6 128 
6 129 
6 131 
6 134 
6 136 
6 137 
6 139 
6 141 
6 143 
6 145 
6 147 
6 149 
6 152 
6 154 
6 156 
6 158 
6 160 
7 8 
7 82 
7 84 
7 86 
7 87 
7 90 
7 91 
7 93 
7 96 
7 98 
7 99 
7 101 
7 104 
7 105 
7 108 
7 110 
7 111 
7 114 
7 115 
7 117 
7 119 
7 121 
7 123 
7 126 
7 127 
7 129 
7 132 
7 134 
7 136 
7 138 
7 139 
7 142 
7 143 
7 145 
7 148 
7 150 
7 152 
7 154 
7 155 
7 157 
7 159 
8 81 
8 83 
8 85 
8 88 
8 89 
8 92 
8 94 
8 95 
8 97 
8 100 
8 102 
8 103 
8 106 
8 107 
8 109 
8 112 
8 113 
8 116 
8 118 
8 120 
8 122 
8 124 
8 125 
8 128 
8 130 
8 131 
8 133 
8 135 
8 137 
8 140 
8 141 
8 144 
8 146 
8 147 
8 149 
8 151 
8 153 
8 156 
8 158 
8 160 
9 10 
9 82 
9 83 
9 85 
9 87 
9 90 
9 91 
9 94 
9 95 
9 98 
9 100 
9 101 
9 104 
9 106 
9 107 
9 109 
9 111 
9 113 
9 115 
9 118 
9 119 
9 121 
9 124 
9 125 
9 127 
9 130 
9 132 
9 134 
9 135 
9 137 
9 139 
9 141 
9 144 
9 146 
9 148 
9 150 
9 152 
9 154 
9 156 
9 157 
9 160 
10 81 
10 84 
10 86 
10 88 
10 89 
10 92 
10 93 
10 96 
10 97 
10 99 
10 102 
10 103 
10 105 
10 108 
10 110 
10 112 
10 114 
10 116 
10 117 
10 120 
10 122 
10 123 
10 126 
10 128 
10 129 
10 131 
10 133 
10 136 
10 138 
10 140 
10 142 
10 143 
10 145 
10 147 
10 149 
10 151 
10 153 
10 155 
10 158 
10 159 
11 12 
11 81 
11 84 
11 86 
11 87 
11 89 
11 91 
11 93 
11 95 
11 97 
11 100 
11 102 
11 103 
11 106 
11 107 
11 109 
11 112 
11 114 
11 115 
11 117 
11 119 
11 122 
11 124 
11 126 
11 128 
11 129 
11 131 
11 134 
11 135 
11 138 
11 139 
11 142 
11 144 
11 145 
11 148 
11 150 
11 152 
11 153 
11 156 
11 157 
11 160 
12 82 
12 83 
12 85 
12 88 
12 90 
12 92 
12 94 
12 96 
12 98 
12 99 
12 101 
12 104 
12 105 
12 108 
12 110 
12 111 
12 113 
12 116 
12 118 
12 120 
12 121 
12 123 
12 125 
12 127 
12 130 
12 132 
12 133 
12 136 
12 137 
12 140 
12 141 
12 143 
12 146 
12 147 
12 149 
12 151 
12 154 
12 155 
12 158 
12 159 
13 14 
13 82 
13 84 
13 85 
13 87 
13 89 
13 91 
13 94 
13 96 
13 98 
13 99 
13 102 
13 103 
13 105 
13 107 
13 110 
13 112 
13 114 
13 116 
13 118 
13 119 
13 122 
13 124 
13 125 
13 128 
13 129 
13 132 
13 134 
13 136 
13 137 
13 139 
13 141 
13 144 
13 146 
13 147 
13 150 
13 151 
13 153 
13 155 
13 157 
13 159 
14 81 
14 83 
14 86 
14 88 
14 90 
14 92 
14 93 
14 95 
14 97 
14 100 
14 101 
14 104 
14 106 
14 108 
14 109 
14 111 
14 113 
14 115 
14 117 
14 120 
14 121 
14 123 
14 126 
14 127 
14 130 
14 131 
14 133 
14 135 
14 138 
14 140 
14 142 
14 143 
14 145 
14 148 
14 149 
14 152 
14 154 
14 156 
14 158 
14 160 
15 16 
15 82 
15 83 
15 85 
15 88 
15 90 
15 91 
15 94 
15 95 
15 97 
15 99 
15 102 
15 104 
15 105 
15 108 
15 109 
15 112 
15 113 
15 116 
15 117 
15 120 
15 122 
15 123 
15 126 
15 128 
15 129 
15 131 
15 134 
15 135 
15 137 
15 139 
15 142 
15 143 
15 146 
15 147 
15 150 
15 152 
15 154 
15 156 
15 157 
15 159 
16 81 
16 84 
16 86 
16 87 
16 89 
16 92 
16 93 
16 96 
16 98 
16 100 
16 101 
16 103 
16 106 
16 107 
16 110 
16 111 
16 114 
16 115 
16 118 
16 119 
16 121 
16 124 
16 125 
16 127 
16 130 
16 132 
16 133 
16 136 
16 138 
16 140 
16 141 
16 144 
16 145 
16 148 
16 149 
16 151 
16 153 
16 155 
16 158 
16 160 
17 18 
17 82 
17 84 
17 85 
17 87 
17 90 
17 92 
17 94 
17 96 
17 97 
17 100 
17 102 
17 103 
17 106 
17 108 
17 109 
17 111 
17 113 
17 116 
17 117 
17 119 
17 121 
17 124 
17 125 
17 127 
17 129 
17 131 
17 133 
17 136 
17 138 
17 139 
17 142 
17 143 
17 146 
17 148 
17 150 
17 151 
17 153 
17 156 
17 158 
17 159 
18 81 
18 83 
18 86 
18 88 
18 89 
18 91 
18 93 
18 95 
18 98 
18 99 
18 101 
18 104 
18 105 
18 107 
18 110 
18 112 
18 114 
18 115 
18 118 
18 120 
18 122 
18 123 
18 126 
18 128 
18 130 
18 132 
18 134 
18 135 
18 137 
18 140 
18 141 
18 144 
18 145 
18 147 
18 149 
18 152 
18 154 
18 155 
18 157 
18 160 
19 20 
19 82 
19 83 
19 86 
19 88 
19 89 
19 92 
19 94 
19 95 
19 98 
19 99 
19 102 
19 104 
19 106 
19 108 
19 109 
19 112 
19 114 
19 115 
19 117 
19 119 
19 121 
19 123 
19 125 
19 127 
19 129 
19 131 
19 133 
19 136 
19 138 
19 140 
19 141 
19 144 
19 146 
19 147 
19 150 
19 152 
19 153 
19 155 
19 157 
19 160 
20 81 
20 84 
20 85 
20 87 
20 90 
20 91 
20 93 
20 96 
20 97 
20 100 
20 101 
20 103 
20 105 
20 107 
20 110 
20 111 
20 113 
20 116 
20 118 
20 120 
20 122 
20 124 
20 126 
20 128 
20 130 
20 132 
20 134 
20 135 
20 137 
20 139 
20 142 
20 143 
20 145 
20 148 
20 149 
20 151 
20 154 
20 156 
20 158 
20 159 
21 22 
21 82 
21 84 
21 86 
21 87 
21 90 
21 91 
21 93 
21 96 
21 97 
21 100 
21 101 
21 103 
21 105 
21 107 
21 109 
21 112 
21 114 
21 116 
21 118 
21 120 
21 121 
21 123 
21 125 
21 127 
21 129 
21 131 
21 133 
21 135 
21 137 
21 140 
21 142 
21 144 
21 146 
21 147 
21 150 
21 152 
21 154 
21 155 
21 158 
21 160 
22 81 
22 83 
22 85 
22 88 
22 89 
22 92 
22 94 
22 95 
22 98 
22 99 
22 102 
22 104 
22 106 
22 108 
22 110 
22 111 
22 113 
22 115 
22 117 
22 119 
22 122 
22 124 
22 126 
22 128 
22 130 
22 132 
22 134 
22 136 
22 138 
22 139 
22 141 
22 143 
22 145 
22 148 
22 149 
22 151 
22 153 
22 156 
22 157 
22 159 
23 24 
23 82 
23 83 
23 86 
23 88 
23 90 
23 91 
23 93 
23 96 
23 97 
23 99 
23 102 
23 103 
23 106 
23 108 
23 109 
23 111 
23 113 
23 115 
23 118 
23 120 
23 121 
23 124 
23 125 
23 128 
23 130 
23 132 
23 134 
23 135 
23 138 
23 140 
23 142 
23 144 
23 145 
23 147 
23 150 
23 151 
23 153 
23 155 
23 157 
23 159 
24 81 
24 84 
24 85 
24 87 
24 89 
24 92 
24 94 
24 95 
24 98 
24 100 
24 101 
24 104 
24 105 
24 107 
24 110 
24 112 
24 114 
24 116 
24 117 
24 119 
24 122 
24 123 
24 126 
24 127 
24 129 
24 131 
24 133 
24 136 
24 137 
24 139 
24 141 
24 143 
24 146 
24 148 
24 149 
24 152 
24 154 
24 156 
24 158 
24 160 
25 26 
25 81 
25 83 
25 86 
25 88 
25 90 
25 91 
25 94 
25 95 
25 98 
25 100 
25 102 
25 103 
25 105 
25 107 
25 109 
25 112 
25 114 
25 115 
25 118 
25 119 
25 121 
25 124 
25 126 
25 127 
25 130 
25 131 
25 134 
25 136 
25 138 
25 139 
25 142 
25 143 
25 146 
25 147 
25 149 
25 151 
25 154 
25 155 
25 158 
25 159 
26 82 
26 84 
26 85 
26 87 
26 89 
26 92 
26 93 
26 96 
26 97 
26 99 
26 101 
26 104 
26 106 
26 108 
26 110 
26 111 
26 113 
26 116 
26 117 
26 120 
26 122 
26 123 
26 125 
26 128 
26 129 
26 132 
26 133 
26 135 
26 137 
26 140 
26 141 
26 144 
26 145 
26 148 
26 150 
26 152 
26 153 
26 156 
26 157 
26 160 
27 28 
27 82 
27 84 
27 86 
27 88 
27 89 
27 92 
27 93 
27 95 
27 98 
27 100 
27 101 
27 103 
27 106 
27 108 
27 110 
27 111 
27 114 
27 116 
27 117 
27 119 
27 121 
27 123 
27 125 
27 128 
27 130 
27 131 
27 134 
27 135 
27 137 
27 139 
27 142 
27 144 
27 146 
27 147 
27 149 
27 151 
27 154 
27 156 
27 157 
27 159 
28 81 
28 83 
28 85 
28 87 
28 90 
28 91 
28 94 
28 96 
28 97 
28 99 
28 102 
28 104 
28 105 
28 107 
28 109 
28 112 
28 113 
28 115 
28 118 
28 120 
28 122 
28 124 
28 126 
28 127 
28 129 
28 132 
28 133 
28 136 
28 138 
28 140 
28 141 
28 143 
28 145 
28 148 
28 150 
28 152 
28 153 
28 155 
28 158 
28 160 
29 30 
29 81 
29 83 
29 86 
29 88 
29 90 
29 91 
29 93 
29 96 
29 97 
29 100 
29 101 
29 104 
29 106 
29 108 
29 110 
29 112 
29 113 
29 116 
29 118 
29 119 
29 121 
29 124 
29 126 
29 128 
29 129 
29 131 
29 133 
29 136 
29 137 
29 139 
29 141 
29 144 
29 146 
29 148 
29 149 
29 152 
29 153 
29 155 
29 157 
29 159 
30 82 
30 84 
30 85 
30 87 
30 89 
30 92 
30 94 
30 95 
30 98 
30 99 
30 102 
30 103 
30 105 
30 107 
30 109 
30 111 
30 114 
30 115 
30 117 
30 120 
30 122 
30 123 
30 125 
30 127 
30 130 
30 132 
30 134 
30 135 
30 138 
30 140 
30 142 
30 143 
30 145 
30 147 
30 150 
30 151 
30 154 
30 156 
30 158 
30 160 
31 32 
31 81 
31 83 
31 86 
31 87 
31 89 
31 91 
31 94 
31 96 
31 98 
31 99 
31 101 
31 104 
31 106 
31 107 
31 110 
31 111 
31 113 
31 116 
31 118 
31 119 
31 121 
31 123 
31 126 
31 128 
31 129 
31 131 
31 134 
31 135 
31 138 
31 140 
31 142 
31 143 
31 146 
31 147 
31 150 
31 151 
31 153 
31 156 
31 158 
31 160 
32 82 
32 84 
32 85 
32 88 
32 90 
32 92 
32 93 
32 95 
32 97 
32 100 
32 102 
32 103 
32 105 
32 108 
32 109 
32 112 
32 114 
32 115 
32 117 
32 120 
32 122 
32 124 
32 125 
32 127 
32 130 
32 132 
32 133 
32 136 
32 137 
32 139 
32 141 
32 144 
32 145 
32 148 
32 149 
32 152 
32 154 
32 155 
32 157 
32 159 
33 34 
33 82 
33 83 
33 86 
33 87 
33 90 
33 91 
33 94 
33 96 
33 98 
33 100 
33 102 
33 103 
33 105 
33 108 
33 109 
33 112 
33 114 
33 116 
33 117 
33 119 
33 121 
33 123 
33 126 
33 128 
33 130 
33 132 
33 133 
33 135 
33 137 
33 140 
33 141 
33 143 
33 145 
33 148 
33 149 
33 151 
33 153 
33 156 
33 157 
33 160 
34 81 
34 84 
34 85 
34 88 
34 89 
34 92 
34 93 
34 95 
34 97 
34 99 
34 101 
34 104 
34 106 
34 107 
34 110 
34 111 
34 113 
34 115 
34 118 
34 120 
34 122 
34 124 
34 125 
34 127 
34 129 
34 131 
34 134 
34 136 
34 138 
34 139 
34 142 
34 144 
34 146 
34 147 
34 150 
34 152 
34 154 
34 155 
34 158 
34 159 
35 36 
35 81 
35 83 
35 86 
35 87 
35 90 
35 92 
35 94 
35 95 
35 98 
35 99 
35 101 
35 103 
35 105 
35 108 
35 110 
35 112 
35 113 
35 116 
35 117 
35 119 
35 122 
35 124 
35 125 
35 127 
35 130 
35 131 
35 134 
35 135 
35 137 
35 140 
35 142 
35 144 
35 145 
35 148 
35 150 
35 152 
35 153 
35 155 
35 158 
35 159 
36 82 
36 84 
36 85 
36 88 
36 89 
36 91 
36 93 
36 96 
36 97 
36 100 
36 102 
36 104 
36 106 
36 107 
36 109 
36 111 
36 114 
36 115 
36 118 
36 120 
36 121 
36 123 
36 126 
36 128 
36 129 
36 132 
36 133 
36 136 
36 138 
36 139 
36 141 
36 143 
36 146 
36 147 
36 149 
36 151 
36 154 
36 156 
36 157 
36 160 
37 38 
37 82 
37 84 
37 86 
37 88 
37 90 
37 91 
37 93 
37 95 
37 98 
37 100 
37 102 
37 104 
37 105 
37 108 
37 110 
37 111 
37 114 
37 116 
37 118 
37 120 
37 122 
37 124 
37 125 
37 128 
37 130 
37 131 
37 134 
37 136 
37 138 
37 140 
37 141 
37 143 
37 146 
37 148 
37 150 
37 152 
37 153 
37 156 
37 158 
37 160 
38 81 
38 83 
38 85 
38 87 
38 89 
38 92 
38 94 
38 96 
38 97 
38 99 
38 101 
38 103 
38 106 
38 107 
38 109 
38 112 
38 113 
38 115 
38 117 
38 119 
38 121 
38 123 
38 126 
38 127 
38 129 
38 132 
38 133 
38 135 
38 137 
38 139 
38 142 
38 144 
38 145 
38 147 
38 149 
38 151 
38 154 
38 155 
38 157 
38 159 
39 40 
39 81 
39 83 
39 85 
39 88 
39 89 
39 91 
39 94 
39 96 
39 98 
39 100 
39 102 
39 104 
39 105 
39 108 
39 110 
39 111 
39 114 
39 115 
39 117 
39 120 
39 121 
39 124 
39 125 
39 128 
39 129 
39 131 
39 133 
39 135 
39 137 
39 139 
39 142 
39 144 
39 145 
39 148 
39 150 
39 151 
39 154 
39 155 
39 158 
39 160 
40 82 
40 84 
40 86 
40 87 
40 90 
40 92 
40 93 
40 95 
40 97 
40 99 
40 101 
40 103 
40 106 
40 107 
40 109 
40 112 
40 113 
40 116 
40 118 
40 119 
40 122 
40 123 
40 126 
40 127 
40 130 
40 132 
40 134 
40 136 
40 138 
40 140 
40 141 
40 143 
40 146 
40 147 
40 149 
40 152 
40 153 
40 156 
40 157 
40 159 
41 42 
41 81 
41 84 
41 85 
41 88 
41 90 
41 91 
41 94 
41 95 
41 98 
41 99 
41 101 
41 103 
41 106 
41 108 
41 110 
41 112 
41 114 
41 116 
41 118 
41 120 
41 121 
41 124 
41 125 
41 127 
41 129 
41 132 
41 133 
41 135 
41 138 
41 139 
41 142 
41 143 
41 145 
41 147 
41 149 
41 152 
41 153 
41 156 
41 157 
41 160 
42 82 
42 83 
42 86 
42 87 
42 89 
42 92 
42 93 
42 96 
42 97 
42 100 
42 102 
42 104 
42 105 
42 107 
42 109 
42 111 
42 113 
42 115 
42 117 
42 119 
42 122 
42 123 
42 126 
42 128 
42 130 
42 131 
42 134 
42 136 
42 137 
42 140 
42 141 
42 144 
42 146 
42 148 
42 150 
42 151 
42 154 
42 155 
42 158 
42 159 
43 44 
43 81 
43 83 
43 85 
43 87 
43 89 
43 92 
43 93 
43 96 
43 98 
43 99 
43 102 
43 103 
43 105 
43 108 
43 109 
43 111 
43 114 
43 116 
43 118 
43 120 
43 121 
43 124 
43 126 
43 127 
43 129 
43 131 
43 134 
43 135 
43 138 
43 140 
43 141 
43 144 
43 146 
43 148 
43 149 
43 152 
43 154 
43 156 
43 157 
43 159 
44 82 
44 84 
44 86 
44 88 
44 90 
44 91 
44 94 
44 95 
44 97 
44 100 
44 101 
44 104 
44 106 
44 107 
44 110 
44 112 
44 113 
44 115 
44 117 
44 119 
44 122 
44 123 
44 125 
44 128 
44 130 
44 132 
44 133 
44 136 
44 137 
44 139 
44 142 
44 143 
44 145 
44 147 
44 150 
44 151 
44 153 
44 155 
44 158 
44 160 
45 46 
45 81 
45 84 
45 86 
45 88 
45 90 
45 92 
45 94 
45 96 
45 98 
45 100 
45 101 
45 103 
45 105 
45 108 
45 109 
45 111 
45 113 
45 115 
45 118 
45 120 
45 122 
45 123 
45 126 
45 127 
45 129 
45 131 
45 134 
45 136 
45 137 
45 139 
45 141 
45 144 
45 145 
45 147 
45 150 
45 151 
45 153 
45 156 
45 157 
45 160 
46 82 
46 83 
46 85 
46 87 
46 89 
46 91 
46 93 
46 95 
46 97 
46 99 
46 102 
46 104 
46 106 
46 107 
46 110 
46 112 
46 114 
46 116 
46 117 
46 119 
46 121 
46 124 
46 125 
46 128 
46 130 
46 132 
46 133 
46 135 
46 138 
46 140 
46 142 
46 143 
46 146 
46 148 
46 149 
46 152 
46 154 
46 155 
46 158 
46 159 
47 48 
47 81 
47 84 
47 86 
47 87 
47 89 
47 91 
47 94 
47 96 
47 97 
47 100 
47 102 
47 104 
47 105 
47 108 
47 110 
47 112 
47 113 
47 115 
47 117 
47 120 
47 121 
47 123 
47 125 
47 127 
47 130 
47 132 
47 134 
47 135 
47 138 
47 139 
47 141 
47 144 
47 146 
47 147 
47 149 
47 152 
47 153 
47 156 
47 158 
47 159 
48 82 
48 83 
48 85 
48 88 
48 90 
48 92 
48 93 
48 95 
48 98 
48 99 
48 101 
48 103 
48 106 
48 107 
48 109 
48 111 
48 114 
48 116 
48 118 
48 119 
48 122 
48 124 
48 126 
48 128 
48 129 
48 131 
48 133 
48 136 
48 137 
48 140 
48 142 
48 143 
48 145 
48 148 
48 150 
48 151 
48 154 
48 155 
48 157 
48 160 
49 50 
49 82 
49 84 
49 86 
49 88 
49 90 
49 92 
49 94 
49 96 
49 97 
49 99 
49 102 
49 104 
49 106 
49 108 
49 110 
49 112 
49 114 
49 115 
49 118 
49 119 
49 122 
49 124 
49 126 
49 127 
49 129 
49 132 
49 134 
49 135 
49 137 
49 140 
49 142 
49 144 
49 146 
49 148 
49 149 
49 151 
49 154 
49 156 
49 158 
49 160 
50 81 
50 83 
50 85 
50 87 
50 89 
50 91 
50 93 
50 95 
50 98 
50 100 
50 101 
50 103 
50 105 
50 107 
50 109 
50 111 
50 113 
50 116 
50 117 
50 120 
50 121 
50 123 
50 125 
50 128 
50 130 
50 131 
50 133 
50 136 
50 138 
50 139 
50 141 
50 143 
50 145 
50 147 
50 150 
50 152 
50 153 
50 155 
50 157 
50 159 
51 52 
51 82 
51 83 
51 85 
51 88 
51 89 
51 91 
51 93 
51 95 
51 97 
51 100 
51 101 
51 103 
51 105 
51 108 
51 110 
51 112 
51 113 
51 116 
51 117 
51 119 
51 121 
51 124 
51 126 
51 127 
51 129 
51 132 
51 134 
51 136 
51 138 
51 140 
51 141 
51 144 
51 145 
51 147 
51 150 
51 151 
51 154 
51 156 
51 158 
51 160 
52 81 
52 84 
52 86 
52 87 
52 90 
52 92 
52 94 
52 96 
52 98 
52 99 
52 102 
52 104 
52 106 
52 107 
52 109 
52 111 
52 114 
52 115 
52 118 
52 120 
52 122 
52 123 
52 125 
52 128 
52 130 
52 131 
52 133 
52 135 
52 137 
52 139 
52 142 
52 143 
52 146 
52 148 
52 149 
52 152 
52 153 
52 155 
52 157 
52 159 
53 54 
53 82 
53 84 
53 86 
53 87 
53 89 
53 92 
53 94 
53 95 
53 97 
53 99 
53 101 
53 103 
53 105 
53 108 
53 110 
53 112 
53 113 
53 115 
53 118 
53 120 
53 121 
53 124 
53 126 
53 128 
53 130 
53 131 
53 133 
53 135 
53 138 
53 139 
53 141 
53 143 
53 146 
53 148 
53 150 
53 151 
53 154 
53 155 
53 157 
53 160 
54 81 
54 83 
54 85 
54 88 
54 90 
54 91 
54 93 
54 96 
54 98 
54 100 
54 102 
54 104 
54 106 
54 107 
54 109 
54 111 
54 114 
54 116 
54 117 
54 119 
54 122 
54 123 
54 125 
54 127 
54 129 
54 132 
54 134 
54 136 
54 137 
54 140 
54 142 
54 144 
54 145 
54 147 
54 149 
54 152 
54 153 
54 156 
54 158 
54 159 
55 56 
55 82 
55 83 
55 85 
55 88 
55 90 
55 91 
55 93 
55 96 
55 98 
55 99 
55 101 
55 103 
55 106 
55 107 
55 110 
55 112 
55 114 
55 115 
55 117 
55 120 
55 122 
55 123 
55 126 
55 127 
55 130 
55 131 
55 133 
55 135 
55 138 
55 139 
55 141 
55 144 
55 146 
55 148 
55 150 
55 151 
55 153 
55 156 
55 158 
55 159 
56 81 
56 84 
56 86 
56 87 
56 89 
56 92 
56 94 
56 95 
56 97 
56 100 
56 102 
56 104 
56 105 
56 108 
56 109 
56 111 
56 113 
56 116 
56 118 
56 119 
56 121 
56 124 
56 125 
56 128 
56 129 
56 132 
56 134 
56 136 
56 137 
56 140 
56 142 
56 143 
56 145 
56 147 
56 149 
56 152 
56 154 
56 155 
56 157 
56 160 
57 58 
57 82 
57 84 
57 85 
57 88 
57 90 
57 92 
57 94 
57 96 
57 97 
57 99 
57 101 
57 104 
57 105 
57 107 
57 109 
57 111 
57 114 
57 116 
57 117 
57 119 
57 121 
57 124 
57 126 
57 128 
57 130 
57 131 
57 134 
57 135 
57 138 
57 139 
57 141 
57 144 
57 145 
57 147 
57 149 
57 152 
57 153 
57 155 
57 158 
57 160 
58 81 
58 83 
58 86 
58 87 
58 89 
58 91 
58 93 
58 95 
58 98 
58 100 
58 102 
58 103 
58 106 
58 108 
58 110 
58 112 
58 113 
58 115 
58 118 
58 120 
58 122 
58 123 
58 125 
58 127 
58 129 
58 132 
58 133 
58 136 
58 137 
58 140 
58 142 
58 143 
58 146 
58 148 
58 150 
58 151 
58 154 
58 156 
58 157 
58 159 
59 60 
59 81 
59 83 
59 86 
59 88 
59 90 
59 92 
59 94 
59 96 
59 97 
59 100 
59 101 
59 103 
59 105 
59 107 
59 110 
59 111 
59 114 
59 115 
59 117 
59 119 
59 122 
59 124 
59 125 
59 128 
59 129 
59 132 
59 133 
59 135 
59 138 
59 140 
59 141 
59 143 
59 146 
59 147 
59 150 
59 152 
59 154 
59 156 
59 157 
59 159 
60 82 
60 84 
60 85 
60 87 
60 89 
60 91 
60 93 
60 95 
60 98 
60 99 
60 102 
60 104 
60 106 
60 108 
60 109 
60 112 
60 113 
60 116 
60 118 
60 120 
60 121 
60 123 
60 126 
60 127 
60 130 
60 131 
60 134 
60 136 
60 137 
60 139 
60 142 
60 144 
60 145 
60 148 
60 149 
60 151 
60 153 
60 155 
60 158 
60 160 
61 62 
61 81 
61 83 
61 86 
61 87 
61 90 
61 91 
61 94 
61 95 
61 97 
61 99 
61 101 
61 103 
61 106 
61 108 
61 109 
61 111 
61 114 
61 116 
61 117 
61 120 
61 122 
61 123 
61 125 
61 128 
61 129 
61 132 
61 134 
61 136 
61 138 
61 139 
61 141 
61 144 
61 146 
61 148 
61 149 
61 151 
61 154 
61 155 
61 158 
61 160 
62 82 
62 84 
62 85 
62 88 
62 89 
62 92 
62 93 
62 96 
62 98 
62 100 
62 102 
62 104 
62 105 
62 107 
62 110 
62 112 
62 113 
62 115 
62 118 
62 119 
62 121 
62 124 
62 126 
62 127 
62 130 
62 131 
62 133 
62 135 
62 137 
62 140 
62 142 
62 143 
62 145 
62 147 
62 150 
62 152 
62 153 
62 156 
62 157 
62 159 
63 64 
63 81 
63 84 
63 85 
63 87 
63 90 
63 91 
63 94 
63 95 
63 97 
63 99 
63 102 
63 103 
63 106 
63 108 
63 110 
63 111 
63 114 
63 115 
63 118 
63 119 
63 121 
63 123 
63 126 
63 128 
63 130 
63 131 
63 133 
63 136 
63 137 
63 140 
63 141 
63 144 
63 145 
63 147 
63 150 
63 152 
63 154 
63 156 
63 158 
63 159 
64 82 
64 83 
64 86 
64 88 
64 89 
64 92 
64 93 
64 96 
64 98 
64 100 
64 101 
64 104 
64 105 
64 107 
64 109 
64 112 
64 113 
64 116 
64 117 
64 120 
64 122 
64 124 
64 125 
64 127 
64 129 
64 132 
64 134 
64 135 
64 138 
64 139 
64 142 
64 143 
64 146 
64 148 
64 149 
64 151 
64 153 
64 155 
64 157 
64 160 
65 66 
65 82 
65 84 
65 85 
65 88 
65 89 
65 91 
65 94 
65 96 
65 98 
65 100 
65 101 
65 103 
65 106 
65 108 
65 109 
65 112 
65 113 
65 115 
65 118 
65 119 
65 122 
65 123 
65 125 
65 128 
65 129 
65 131 
65 134 
65 135 
65 138 
65 140 
65 141 
65 143 
65 145 
65 148 
65 149 
65 152 
65 154 
65 155 
65 158 
65 159 
66 81 
66 83 
66 86 
66 87 
66 90 
66 92 
66 93 
66 95 
66 97 
66 99 
66 102 
66 104 
66 105 
66 107 
66 110 
66 111 
66 114 
66 116 
66 117 
66 120 
66 121 
66 124 
66 126 
66 127 
66 130 
66 132 
66 133 
66 136 
66 137 
66 139 
66 142 
66 144 
66 146 
66 147 
66 150 
66 151 
66 153 
66 156 
66 157 
66 160 
67 68 
67 82 
67 83 
67 85 
67 87 
67 89 
67 91 
67 94 
67 96 
67 97 
67 100 
67 101 
67 103 
67 106 
67 108 
67 110 
67 111 
67 114 
67 115 
67 117 
67 120 
67 122 
67 124 
67 126 
67 127 
67 130 
67 131 
67 134 
67 136 
67 137 
67 140 
67 142 
67 143 
67 146 
67 147 
67 149 
67 152 
67 153 
67 155 
67 157 
67 160 
68 81 
68 84 
68 86 
68 88 
68 90 
68 92 
68 93 
68 95 
68 98 
68 99 
68 102 
68 104 
68 105 
68 107 
68 109 
68 112 
68 113 
68 116 
68 118 
68 119 
68 121 
68 123 
68 125 
68 128 
68 129 
68 132 
68 133 
68 135 
68 138 
68 139 
68 141 
68 144 
68 145 
68 148 
68 150 
68 151 
68 154 
68 156 
68 158 
68 159 
69 70 
69 81 
69 84 
69 85 
69 87 
69 90 
69 91 
69 93 
69 96 
69 98 
69 99 
69 101 
69 104 
69 105 
69 108 
69 109 
69 112 
69 113 
69 115 
69 117 
69 119 
69 122 
69 124 
69 125 
69 128 
69 130 
69 131 
69 133 
69 136 
69 138 
69 140 
69 142 
69 144 
69 146 
69 147 
69 149 
69 151 
69 154 
69 156 
69 157 
69 160 
70 82 
70 83 
70 86 
70 88 
70 89 
70 92 
70 94 
70 95 
70 97 
70 100 
70 102 
70 103 
70 106 
70 107 
70 110 
70 111 
70 114 
70 116 
70 118 
70 120 
70 121 
70 123 
70 126 
70 127 
70 129 
70 132 
70 134 
70 135 
70 137 
70 139 
70 141 
70 143 
70 145 
70 148 
70 150 
70 152 
70 153 
70 155 
70 158 
70 159 
71 72 
71 82 
71 83 
71 85 
71 87 
71 90 
71 92 
71 94 
71 95 
71 97 
71 100 
71 101 
71 104 
71 105 
71 107 
71 110 
71 112 
71 114 
71 115 
71 118 
71 120 
71 121 
71 123 
71 125 
71 128 
71 129 
71 131 
71 134 
71 136 
71 138 
71 140 
71 142 
71 144 
71 145 
71 148 
71 149 
71 151 
71 153 
71 156 
71 157 
71 159 
72 81 
72 84 
72 86 
72 88 
72 89 
72 91 
72 93 
72 96 
72 98 
72 99 
72 102 
72 103 
72 106 
72 108 
72 109 
72 111 
72 113 
72 116 
72 117 
72 119 
72 122 
72 124 
72 126 
72 127 
72 130 
72 132 
72 133 
72 135 
72 137 
72 139 
72 141 
72 143 
72 146 
72 147 
72 150 
72 152 
72 154 
72 155 
72 158 
72 160 
73 74 
73 81 
73 83 
73 85 
73 88 
73 89 
73 92 
73 93 
73 96 
73 97 
73 99 
73 101 
73 103 
73 105 
73 108 
73 109 
73 112 
73 114 
73 115 
73 118 
73 119 
73 121 
73 123 
73 125 
73 128 
73 130 
73 132 
73 134 
73 136 
73 137 
73 139 
73 142 
73 143 
73 146 
73 148 
73 150 
73 152 
73 153 
73 156 
73 158 
73 160 
74 82 
74 84 
74 86 
74 87 
74 90 
74 91 
74 94 
74 95 
74 98 
74 100 
74 102 
74 104 
74 106 
74 107 
74 110 
74 111 
74 113 
74 116 
74 117 
74 120 
74 122 
74 124 
74 126 
74 127 
74 129 
74 131 
74 133 
74 135 
74 138 
74 140 
74 141 
74 144 
74 145 
74 147 
74 149 
74 151 
74 154 
74 155 
74 157 
74 159 
75 76 
75 81 
75 83 
75 85 
75 87 
75 90 
75 92 
75 93 
75 96 
75 97 
75 100 
75 102 
75 104 
75 106 
75 108 
75 110 
75 112 
75 114 
75 116 
75 118 
75 119 
75 122 
75 123 
75 125 
75 127 
75 130 
75 131 
75 134 
75 135 
75 138 
75 139 
75 141 
75 143 
75 145 
75 147 
75 150 
75 151 
75 154 
75 155 
75 157 
75 160 
76 82 
76 84 
76 86 
76 88 
76 89 
76 91 
76 94 
76 95 
76 98 
76 99 
76 101 
76 103 
76 105 
76 107 
76 109 
76 111 
76 113 
76 115 
76 117 
76 120 
76 121 
76 124 
76 126 
76 128 
76 129 
76 132 
76 133 
76 136 
76 137 
76 140 
76 142 
76 144 
76 146 
76 148 
76 149 
76 152 
76 153 
76 156 
76 158 
76 159 
77 78 
77 82 
77 83 
77 85 
77 87 
77 90 
77 92 
77 93 
77 95 
77 98 
77 100 
77 102 
77 103 
77 105 
77 108 
77 110 
77 111 
77 113 
77 115 
77 118 
77 119 
77 122 
77 123 
77 126 
77 128 
77 129 
77 132 
77 133 
77 135 
77 138 
77 139 
77 142 
77 144 
77 146 
77 147 
77 149 
77 152 
77 153 
77 155 
77 158 
77 160 
78 81 
78 84 
78 86 
78 88 
78 89 
78 91 
78 94 
78 96 
78 97 
78 99 
78 101 
78 104 
78 106 
78 107 
78 109 
78 112 
78 114 
78 116 
78 117 
78 120 
78 121 
78 124 
78 125 
78 127 
78 130 
78 131 
78 134 
78 136 
78 137 
78 140 
78 141 
78 143 
78 145 
78 148 
78 150 
78 151 
78 154 
78 156 
78 157 
78 159 
79 80 
79 82 
79 83 
79 86 
79 88 
79 89 
79 91 
79 94 
79 96 
79 97 
79 99 
79 102 
79 103 
79 105 
79 107 
79 110 
79 111 
79 113 
79 116 
79 118 
79 119 
79 122 
79 123 
79 125 
79 127 
79 130 
79 131 
79 133 
79 136 
79 138 
79 139 
79 142 
79 144 
79 145 
79 148 
79 149 
79 152 
79 154 
79 156 
79 157 
79 160 
80 81 
80 84 
80 85 
80 87 
80 90 
80 92 
80 93 
80 95 
80 98 
80 100 
80 101 
80 104 
80 106 
80 108 
80 109 
80 112 
80 114 
80 115 
80 117 
80 120 
80 121 
80 124 
80 126 
80 128 
80 129 
80 132 
80 134 
80 135 
80 137 
80 140 
80 141 
80 143 
80 146 
80 147 
80 150 
80 151 
80 153 
80 155 
80 158 
80 159 
81 82 
83 84 
85 86 
87 88 
89 90 
91 92 
93 94 
95 96 
97 98 
99 100 
101 102 
103 104 
105 106 
107 108 
109 110 
111 112 
113 114 
115 116 
117 118 
119 120 
121 122 
123 124 
125 126 
127 128 
129 130 
131 132 
133 134 
135 136 
137 138 
139 140 
141 142 
143 144 
145 146 
147 148 
149 150 
151 152 
153 154 
155 156 
157 158 
159 160 
